T = 10;
E = 50;
G = 4;
easy = [5,5,5,5];
hard = [10,10,10,10];
tired = [3,3,3,3];
p = 3;
b = 4;

/* feasible solution
act = array2d(GUARD,TIME,[
10, 0,  0, 0,0,0,0,0,0,0,
5, -1, 10, 0,0,0,0,0,0,0,
5, -1, 10, 0,0,0,0,0,0,0,
0,  0, 10, 0,0,0,0,0,0,0]);
end = 3;
*/